\ LP format - for model browsing. Use MPS format to capture full model detail.
Minimize
  2.15313e-06 X[620144,619982,1] + 1.17981e-06 X[616947,620481,1]
   + 1.25447e-06 X[616947,620481,2] + 7.97961e-07 X[618237,620535,1]
   + 6.8304e-07 X[618237,620535,2] + 3.57451e-06 X[619982,618237,1]
   + 3.05659e-06 X[620144,620347,1] + 2.25932e-06 X[616711,619982,1]
   + 1.73806e-06 X[615540,618133,1] + 3.07035e-06 X[615356,618917,1]
   + 1.7587e-06 X[615356,618917,2] + 1.23601e-06 X[620347,618237,2]
   + 3.76482e-06 X[620144,618522,1] + 1.65026e-06 X[620144,616947,1]
   + 2.19554e-06 X[617301,618185,1] + 8.47369e-07 X[620103,621019,1]
   + 1.2938e-06 X[618522,620439,1] + 2.08412e-06 X[618522,620439,2]
   + 9.61273e-06 X[617435,616947,1] + 1.23601e-06 X[618185,620103,2]
   + 4.43891e-06 X[618133,618237,1] + 9.05905e-07 X[618196,620095,1]
   + 1.78716e-06 X[618196,620095,2] + 3.214e-07 X[620095,621052,1]
   + 1.21578e-07 X[620095,621052,2] + 2.30815e-06 X[615354,618196,1]
   + 1.18437e-05 X[617301,618185,3] + 3.67067e-06 X[616206,618917,1]
   + 1.30061e-05 X[616206,618917,3] + 2.74159e-06 X[618300,618917,1]
   + 1.28071e-05 X[618300,618917,3] + 3.57451e-06 X[616226,620336,1]
   + 2.1337e-06 X[618564,615104,1] + 9.69539e-07 X[620336,620862,1]
   + 2.69384e-07 X[620336,620862,2] + 3.49716e-06 X[618917,620653,1]
   + 2.76254e-06 X[618917,620653,2] + 7.77462e-06 X[615104,620336,2]
   + 1.81149e-06 X[619713,615104,1] + 1.0948e-05 X[619713,615104,3]
   + 2.30815e-06 X[618008,615104,1] + 2.24098e-06 X[619271,615104,1]
   + 1.08847e-05 X[619271,615104,3] + 2.33122e-06 X[619271,616226,1]
   + 7.97041e-06 X[619271,616226,3] + 2.46509e-06 X[618300,616226,1]
   + 0 O[620853] + 0 O[620650] + 0 O[620626] + 0 O[620627] + 0 O[620832]
   + 0 O[620952] + 0 O[620621] + 0 O[620622] + 0 O[620623] + 0 O[620624]
   + 0 O[620625] + 0 O[620628] + 0 O[620629] + 0 O[620630] + 0 O[620631]
   + 0 O[620632] + 0 O[620633] + 0 O[620634] + 0 O[620635] + 0 O[620636]
   + 0 O[620637] + 0 O[620638] + 0 O[620639] + 0 O[620640] + 0 O[620641]
   + 0 O[620642] + 0 O[620643] + 0 O[620644] + 0 O[620645] + 0 O[620646]
   + 0 O[620647] + 0 O[620648] + 0 O[620649] + 0 O[620871] + 0 O[620872]
   + 0 O[620873] + 0 O[620874] + 0 O[620875] + 0 O[620876] + 0 O[620877]
   + 0 O[620878] + 0 O[620879] + 0 O[620880] + 0 O[620881] + 0 O[620882]
   + 0 O[620883] + 0 O[620884] + 0 O[620885] + 0 O[620886] + 0 O[620887]
   + 0 O[620888] + 0 O[620889] + 0 O[620890] + 0 O[620891] + 0 O[620892]
   + 0 O[620893] + 0 O[620894] + 0 O[620895] + 0 O[620896] + 0 O[620897]
   + 0 O[620898] + 0 O[620899] + 0 O[620900] + 0 O[620901] + 0 O[620902]
   + 0 O[620903] + 0 O[620904] + 0 O[620905] + 0 O[620906] + 0 O[620907]
   + 0 O[620908] + 0 O[620909] + 0 O[620910] + 0 O[620911] + 0 O[620912]
   + 0 O[620913] + 0 O[620914] + 0 O[620915] + 0 O[620916] + 0 O[620917]
   + 0 O[620918] + 0 O[620919] + 0 O[620920] + 0 O[620921] + 0 O[620922]
   + 0 O[620923] + 0 O[620924] + 0 O[620925] + 0 O[620926] + 0 O[620927]
   + 0 O[620928] + 0 O[620929] + 0 O[620930] + 0 O[620931] + 0 O[620932]
   + 0 O[620933] + 0 O[620934] + 0 O[620935] + 0 O[620936] + 0 O[620937]
   + 0 O[620938] + 0 O[620939] + 0 O[620940] + 0 O[620941] + 0 O[620942]
   + 0 O[620943] + 0 O[620944] + 0 O[620945] + 0 O[620946] + 0 O[620947]
   + 0 O[620948] + 0 O[620949] + 0 O[620950] + 0 O[620951] + 0 O[620953]
   + 0 O[620954] + 0 O[620955] + 0 O[620956] + 0 O[620957] + 0 O[620958]
   + 0 O[620959] + 0 O[620960] + 0 O[620740] + 0 O[620741] + 0 O[620742]
   + 0 O[620743] + 0 O[620744] + 0 O[620745] + 0 O[620746] + 0 O[620747]
   + 0 O[620748] + 0 O[620749] + 0 O[620750] + 0 O[620751] + 0 O[620752]
   + 0 O[620753] + 0 O[620754] + 0 O[620755] + 0 O[620756] + 0 O[620757]
   + 0 O[620758] + 0 O[620759] + 0 O[620760] + 0 O[620761] + 0 O[620762]
   + 0 O[620763] + 0 O[620764] + 0 O[620765] + 0 O[620766] + 0 O[620767]
   + 0 O[620768] + 0 O[620769] + 0 O[620770] + 0 O[620771] + 0 O[620772]
   + 0 O[620773] + 0 O[620774] + 0 O[620775] + 0 O[620776] + 0 O[620777]
   + 0 O[620778] + 0 O[620779] + 0 O[620780] + 0 O[620781] + 0 O[620782]
   + 0 O[620783] + 0 O[620784] + 0 O[620785] + 0 O[620786] + 0 O[620787]
   + 0 O[620788] + 0 O[620789] + 0 O[620790] + 0 O[620791] + 0 O[620792]
   + 0 O[620793] + 0 O[620794] + 0 O[620795] + 0 O[620796] + 0 O[620797]
   + 0 O[620798] + 0 O[620799] + 0 O[620800] + 0 O[620801] + 0 O[620802]
   + 0 O[620803] + 0 O[620804] + 0 O[620805] + 0 O[620806] + 0 O[620807]
   + 0 O[620808] + 0 O[620809] + 0 O[620810] + 0 O[620811] + 0 O[620812]
   + 0 O[620813] + 0 O[620961] + 0 O[620962] + 0 O[620963] + 0 O[620971]
   + 0 O[620972] + 0 O[620973] + 0 O[620974] + 0 O[620975] + 0 O[620976]
   + 0 O[620977] + 0 O[620978] + 0 O[620979] + 0 O[620980] + 0 O[620981]
   + 0 O[620982] + 0 O[620983] + 0 O[620984] + 0 O[620985] + 0 O[620986]
   + 0 O[620987] + 0 O[620988] + 0 O[620667] + 0 O[620668] + 0 O[620669]
   + 0 O[620670] + 0 O[620671] + 0 O[620672] + 0 O[620673] + 0 O[620674]
   + 0 O[620675] + 0 O[620676] + 0 O[620677] + 0 O[620678] + 0 O[620679]
   + 0 O[620680] + 0 O[620681] + 0 O[620682] + 0 O[620683] + 0 O[620684]
   + 0 O[620685] + 0 O[620686] + 0 O[620687] + 0 O[620688] + 0 O[620689]
   + 0 O[620690] + 0 O[620691] + 0 O[620692] + 0 O[620693] + 0 O[620694]
   + 0 O[620695] + 0 O[620696] + 0 O[620697] + 0 O[620698] + 0 O[620699]
   + 0 O[620700] + 0 O[620701] + 0 O[620702] + 0 O[620703] + 0 O[620704]
   + 0 O[620705] + 0 O[620706] + 0 O[620707] + 0 O[620708] + 0 O[620709]
   + 0 O[620710] + 0 O[620711] + 0 O[620712] + 0 O[620713] + 0 O[620714]
   + 0 O[620715] + 0 O[620716] + 0 O[620717] + 0 O[620718] + 0 O[620719]
   + 0 O[620720] + 0 O[620721] + 0 O[620722] + 0 O[620723] + 0 O[620724]
   + 0 O[620725] + 0 O[620726] + 0 O[620727] + 0 O[620728] + 0 O[620729]
   + 0 O[620730] + 0 O[620731] + 0 O[620732] + 0 O[620733] + 0 O[620734]
   + 0 O[620735] + 0 O[620736] + 0 O[620737] + 0 O[620738] + 0 O[620739]
   + 0 O[614991] + 0 O[620651] + 0 O[620652] + 0 O[620653] + 0 O[620654]
   + 0 O[620655] + 0 O[620656] + 0 O[620657] + 0 O[620658] + 0 O[620659]
   + 0 O[620660] + 0 O[620661] + 0 O[620662] + 0 O[620663] + 0 O[620664]
   + 0 O[620665] + 0 O[620814] + 0 O[620815] + 0 O[620816] + 0 O[620817]
   + 0 O[620818] + 0 O[620819] + 0 O[620820] + 0 O[620821] + 0 O[620822]
   + 0 O[620823] + 0 O[620824] + 0 O[620825] + 0 O[620826] + 0 O[620827]
   + 0 O[620828] + 0 O[620829] + 0 O[620830] + 0 O[620831] + 0 O[620833]
   + 0 O[620834] + 0 O[620835] + 0 O[620836] + 0 O[620837] + 0 O[620838]
   + 0 O[620839] + 0 O[620840] + 0 O[620841] + 0 O[620842] + 0 O[620843]
   + 0 O[620844] + 0 O[620845] + 0 O[620846] + 0 O[620847] + 0 O[620848]
   + 0 O[620849] + 0 O[620850] + 0 O[620851] + 0 O[620852] + 0 O[620854]
   + 0 O[620855] + 0 O[620856] + 0 O[620857] + 0 O[620858] + 0 O[620859]
   + 0 O[620860] + 0 O[620861] + 0 O[620862] + 0 O[620863] + 0 O[620864]
   + 0 O[620865] + 0 O[620866] + 0 O[620867] + 0 O[620868] + 0 O[620869]
   + 0 O[620870] + 0 O[615540] + 0 O[620372] + 0 O[620373] + 0 O[620374]
   + 0 O[620375] + 0 O[620376] + 0 O[620377] + 0 O[620378] + 0 O[620379]
   + 0 O[620380] + 0 O[620381] + 0 O[620382] + 0 O[620383] + 0 O[620384]
   + 0 O[620385] + 0 O[620386] + 0 O[620387] + 0 O[620388] + 0 O[620389]
   + 0 O[620390] + 0 O[620391] + 0 O[620392] + 0 O[620393] + 0 O[620394]
   + 0 O[620395] + 0 O[620396] + 0 O[620397] + 0 O[620398] + 0 O[620399]
   + 0 O[620400] + 0 O[620401] + 0 O[620402] + 0 O[620403] + 0 O[620404]
   + 0 O[620405] + 0 O[620406] + 0 O[620407] + 0 O[620408] + 0 O[620409]
   + 0 O[620410] + 0 O[620411] + 0 O[620412] + 0 O[620413] + 0 O[620414]
   + 0 O[620415] + 0 O[620416] + 0 O[620417] + 0 O[620418] + 0 O[620419]
   + 0 O[620420] + 0 O[620421] + 0 O[620422] + 0 O[620423] + 0 O[620424]
   + 0 O[620425] + 0 O[620426] + 0 O[620427] + 0 O[620428] + 0 O[620429]
   + 0 O[620430] + 0 O[620431] + 0 O[620432] + 0 O[620433] + 0 O[620434]
   + 0 O[620435] + 0 O[620436] + 0 O[620437] + 0 O[620438] + 0 O[620439]
   + 0 O[620440] + 0 O[620441] + 0 O[620442] + 0 O[620443] + 0 O[620444]
   + 0 O[620445] + 0 O[620520] + 0 O[620521] + 0 O[620522] + 0 O[620523]
   + 0 O[620524] + 0 O[620525] + 0 O[620526] + 0 O[620527] + 0 O[620528]
   + 0 O[620529] + 0 O[620530] + 0 O[620531] + 0 O[620532] + 0 O[620533]
   + 0 O[620534] + 0 O[620535] + 0 O[620536] + 0 O[620537] + 0 O[620538]
   + 0 O[620539] + 0 O[620540] + 0 O[620541] + 0 O[620542] + 0 O[620543]
   + 0 O[620544] + 0 O[620545] + 0 O[620546] + 0 O[620547] + 0 O[620548]
   + 0 O[620549] + 0 O[620550] + 0 O[620551] + 0 O[620552] + 0 O[620553]
   + 0 O[620554] + 0 O[620555] + 0 O[620556] + 0 O[620557] + 0 O[620558]
   + 0 O[620559] + 0 O[620560] + 0 O[620561] + 0 O[620562] + 0 O[620563]
   + 0 O[620564] + 0 O[620565] + 0 O[620566] + 0 O[620567] + 0 O[620568]
   + 0 O[620569] + 0 O[620570] + 0 O[620571] + 0 O[620572] + 0 O[620573]
   + 0 O[620574] + 0 O[620575] + 0 O[620576] + 0 O[620577] + 0 O[620578]
   + 0 O[620579] + 0 O[620580] + 0 O[620581] + 0 O[620582] + 0 O[620583]
   + 0 O[620584] + 0 O[620585] + 0 O[620586] + 0 O[620587] + 0 O[620588]
   + 0 O[620589] + 0 O[620590] + 0 O[620446] + 0 O[620447] + 0 O[620448]
   + 0 O[620449] + 0 O[620450] + 0 O[620451] + 0 O[620452] + 0 O[620453]
   + 0 O[620454] + 0 O[620455] + 0 O[620456] + 0 O[620457] + 0 O[620458]
   + 0 O[620459] + 0 O[620460] + 0 O[620461] + 0 O[620462] + 0 O[620463]
   + 0 O[620464] + 0 O[620465] + 0 O[620466] + 0 O[620467] + 0 O[620468]
   + 0 O[620469] + 0 O[620470] + 0 O[620471] + 0 O[620472] + 0 O[620473]
   + 0 O[620474] + 0 O[620475] + 0 O[620476] + 0 O[620477] + 0 O[620478]
   + 0 O[620479] + 0 O[620480] + 0 O[620481] + 0 O[620482] + 0 O[620483]
   + 0 O[620484] + 0 O[620485] + 0 O[620486] + 0 O[620487] + 0 O[620488]
   + 0 O[620489] + 0 O[620490] + 0 O[620491] + 0 O[620492] + 0 O[620493]
   + 0 O[620494] + 0 O[620495] + 0 O[620496] + 0 O[620497] + 0 O[620498]
   + 0 O[620499] + 0 O[620500] + 0 O[620501] + 0 O[620502] + 0 O[620503]
   + 0 O[620504] + 0 O[620505] + 0 O[620506] + 0 O[620507] + 0 O[620508]
   + 0 O[620509] + 0 O[620510] + 0 O[620511] + 0 O[620512] + 0 O[620513]
   + 0 O[620514] + 0 O[620515] + 0 O[620516] + 0 O[620517] + 0 O[620518]
   + 0 O[620519] + 0 O[615820] + 0 O[616711] + 0 O[617056] + 0 O[617435]
   + 0 O[620144] + 0 O[620365] + 0 O[620366] + 0 O[620367] + 0 O[620368]
   + 0 O[620369] + 0 O[620370] + 0 O[620371] + 0 O[621110] + 0 O[615354]
   + 0 O[621121] + 0 O[621146] + 0 O[621147] + 0 O[621148] + 0 O[621149]
   + 0 O[621150] + 0 O[621151] + 0 O[621152] + 0 O[621153] + 0 O[621154]
   + 0 O[620599] + 0 O[619713] + 0 O[620600] + 0 O[620601] + 0 O[620602]
   + 0 O[620666] + 0 O[620603] + 0 O[620604] + 0 O[620605] + 0 O[620606]
   + 0 O[620607] + 0 O[620608] + 0 O[620609] + 0 O[620610] + 0 O[620611]
   + 0 O[620612] + 0 O[620613] + 0 O[620614] + 0 O[620615] + 0 O[620616]
   + 0 O[620617] + 0 O[620618] + 0 O[620619] + 0 O[620620] + 0 O[620995]
   + 0 O[620996] + 0 O[620997] + 0 O[620998] + 0 O[620999] + 0 O[621000]
   + 0 O[621001] + 0 O[621002] + 0 O[621003] + 0 O[621004] + 0 O[621005]
   + 0 O[621006] + 0 O[621007] + 0 O[621008] + 0 O[621009] + 0 O[621010]
   + 0 O[621011] + 0 O[621012] + 0 O[621013] + 0 O[621014] + 0 O[621015]
   + 0 O[621016] + 0 O[621017] + 0 O[621018] + 0 O[621019] + 0 O[621020]
   + 0 O[621021] + 0 O[621022] + 0 O[621023] + 0 O[621024] + 0 O[621025]
   + 0 O[621031] + 0 O[621032] + 0 O[621067] + 0 O[621068] + 0 O[621069]
   + 0 O[621070] + 0 O[621071] + 0 O[621072] + 0 O[621033] + 0 O[621034]
   + 0 O[621035] + 0 O[621036] + 0 O[621037] + 0 O[621038] + 0 O[621039]
   + 0 O[621040] + 0 O[621041] + 0 O[621042] + 0 O[621043] + 0 O[621073]
   + 0 O[621074] + 0 O[621075] + 0 O[621076] + 0 O[621077] + 0 O[621078]
   + 0 O[621079] + 0 O[621080] + 0 O[621081] + 0 O[621082] + 0 O[621083]
   + 0 O[621084] + 0 O[621085] + 0 O[621086] + 0 O[621088] + 0 O[621089]
   + 0 O[621090] + 0 O[621091] + 0 O[621044] + 0 O[621045] + 0 O[621046]
   + 0 O[621047] + 0 O[621048] + 0 O[621049] + 0 O[621050] + 0 O[621051]
   + 0 O[621052] + 0 O[621053] + 0 O[621054] + 0 O[621055] + 0 O[621056]
   + 0 O[621057] + 0 O[621058] + 0 O[621059] + 0 O[621060] + 0 O[621061]
   + 0 O[621062] + 0 O[621092] + 0 O[621093] + 0 O[621094] + 0 O[621095]
   + 0 O[621096] + 0 O[621097] + 0 O[621098] + 0 O[621099] + 0 O[621100]
   + 0 O[621101] + 0 O[621102] + 0 O[621103] + 0 O[621104] + 0 O[621105]
   + 0 O[621106] + 0 O[621107] + 0 O[621108] + 0 O[621109] + 0 O[621087]
   + 0 O[621140] + 0 O[621141] + 0 O[621111] + 0 O[621112] + 0 O[621113]
   + 0 O[621114] + 0 O[621115] + 0 O[621116] + 0 O[621117] + 0 O[621118]
   + 0 O[621119] + 0 O[621120] + 0 O[621122] + 0 O[621123] + 0 O[621124]
   + 0 O[621125] + 0 O[621126] + 0 O[621127] + 0 O[621128] + 0 O[621129]
   + 0 O[621130] + 0 O[621131] + 0 O[621132] + 0 O[621133] + 0 O[621134]
   + 0 O[621135] + 0 O[621136] + 0 O[621137] + 0 O[621138] + 0 O[621139]
   + 0 O[621142] + 0 O[621143] + 0 O[621144] + 0 O[621145] + 0 O[621063]
   + 0 O[621064] + 0 O[621065] + 0 O[621066] + 0 O[621155] + 0 O[621156]
   + 0 O[621157] + 0 O[621158] + 0 O[621159] + 0 O[621160] + 0 O[621161]
   + 0 O[621162] + 0 O[621163] + 0 O[621164] + 0 O[621165] + 0 O[617301]
   + 0 O[620989] + 0 O[620990] + 0 O[620991] + 0 O[621026] + 0 O[621027]
   + 0 O[621028] + 0 O[621029] + 0 O[621030] + 0 O[620591] + 0 O[615356]
   + 0 O[616109] + 0 O[618008] + 0 O[620592] + 0 O[616206] + 0 O[618300]
   + 0 O[620593] + 0 O[616604] + 0 O[618564] + 0 O[620594] + 0 O[620595]
   + 0 O[620596] + 0 O[620597] + 0 O[620598] + 0 O[619271] + 0 O[620992]
   + 0 O[620993] + 0 O[620994] + 0 O[620964] + 0 O[620965] + 0 O[620966]
   + 0 O[620967] + 0 O[620968] + 0 O[620969] + 0 O[620970]
Subject To
 customer_flow[620535]: - X[618237,620535,1] - X[618237,620535,2] = -16
 customer_flow[620481]: - X[616947,620481,1] - X[616947,620481,2] = -12
 customer_flow[621019]: - X[620103,621019,1] = -71
 customer_flow[620439]: - X[618522,620439,1] - X[618522,620439,2] = -87
 customer_flow[621052]: - X[620095,621052,1] - X[620095,621052,2] = -2
 customer_flow[620862]: - X[620336,620862,1] - X[620336,620862,2] = -26
 customer_flow[620653]: - X[618917,620653,1] - X[618917,620653,2] = -2329
 non_customer_flow[618237]: X[618237,620535,1] + X[618237,620535,2]
   - X[619982,618237,1] - X[620347,618237,2] - X[618133,618237,1] = 0
 non_customer_flow[618237]: X[618237,620535,1] + X[618237,620535,2]
   - X[619982,618237,1] - X[620347,618237,2] - X[618133,618237,1] = 0
 non_customer_flow[618237]: X[618237,620535,1] + X[618237,620535,2]
   - X[619982,618237,1] - X[620347,618237,2] - X[618133,618237,1] = 0
 non_customer_flow[620095]: - X[618196,620095,1] - X[618196,620095,2]
   + X[620095,621052,1] + X[620095,621052,2] = 0
 non_customer_flow[620103]: X[620103,621019,1] - X[618185,620103,2] = 0
 non_customer_flow[620336]: - X[616226,620336,1] + X[620336,620862,1]
   + X[620336,620862,2] - X[615104,620336,2] = 0
 non_customer_flow[620336]: - X[616226,620336,1] + X[620336,620862,1]
   + X[620336,620862,2] - X[615104,620336,2] = 0
 capacity_constraint[618237]: X[619982,618237,1] + X[620347,618237,2]
   + X[618133,618237,1] - 85564 O[618237] <= 0
 capacity_constraint[618237]: X[619982,618237,1] + X[620347,618237,2]
   + X[618133,618237,1] - 85564 O[618237] <= 0
 capacity_constraint[618237]: X[619982,618237,1] + X[620347,618237,2]
   + X[618133,618237,1] - 85564 O[618237] <= 0
 capacity_constraint[620095]: X[618196,620095,1] + X[618196,620095,2]
   - 24663 O[620095] <= 0
 capacity_constraint[620103]: X[618185,620103,2] - 795148 O[620103] <= 0
 capacity_constraint[620336]: X[616226,620336,1] + X[615104,620336,2]
   - 328456 O[620336] <= 0
 capacity_constraint[620336]: X[616226,620336,1] + X[615104,620336,2]
   - 328456 O[620336] <= 0
 non_customer_flow[618917]: - X[615356,618917,1] - X[615356,618917,2]
   - X[616206,618917,1] - X[616206,618917,3] - X[618300,618917,1]
   - X[618300,618917,3] + X[618917,620653,1] + X[618917,620653,2] = 0
 non_customer_flow[618133]: - X[615540,618133,1] + X[618133,618237,1] = 0
 non_customer_flow[620347]: - X[620144,620347,1] + X[620347,618237,2] = 0
 non_customer_flow[619982]: - X[620144,619982,1] + X[619982,618237,1]
   - X[616711,619982,1] = 0
 non_customer_flow[619982]: - X[620144,619982,1] + X[619982,618237,1]
   - X[616711,619982,1] = 0
 non_customer_flow[618522]: - X[620144,618522,1] + X[618522,620439,1]
   + X[618522,620439,2] = 0
 non_customer_flow[616947]: X[616947,620481,1] + X[616947,620481,2]
   - X[620144,616947,1] - X[617435,616947,1] = 0
 non_customer_flow[616947]: X[616947,620481,1] + X[616947,620481,2]
   - X[620144,616947,1] - X[617435,616947,1] = 0
 non_customer_flow[618196]: X[618196,620095,1] + X[618196,620095,2]
   - X[615354,618196,1] = 0
 non_customer_flow[615104]: - X[618564,615104,1] + X[615104,620336,2]
   - X[619713,615104,1] - X[619713,615104,3] - X[618008,615104,1]
   - X[619271,615104,1] - X[619271,615104,3] = 0
 non_customer_flow[615104]: - X[618564,615104,1] + X[615104,620336,2]
   - X[619713,615104,1] - X[619713,615104,3] - X[618008,615104,1]
   - X[619271,615104,1] - X[619271,615104,3] = 0
 non_customer_flow[615104]: - X[618564,615104,1] + X[615104,620336,2]
   - X[619713,615104,1] - X[619713,615104,3] - X[618008,615104,1]
   - X[619271,615104,1] - X[619271,615104,3] = 0
 non_customer_flow[616226]: X[616226,620336,1] - X[619271,616226,1]
   - X[619271,616226,3] - X[618300,616226,1] = 0
 non_customer_flow[616226]: X[616226,620336,1] - X[619271,616226,1]
   - X[619271,616226,3] - X[618300,616226,1] = 0
 non_customer_flow[618185]: - X[617301,618185,1] + X[618185,620103,2]
   - X[617301,618185,3] = 0
 non_customer_flow[618917]: - X[615356,618917,1] - X[615356,618917,2]
   - X[616206,618917,1] - X[616206,618917,3] - X[618300,618917,1]
   - X[618300,618917,3] + X[618917,620653,1] + X[618917,620653,2] = 0
 non_customer_flow[618917]: - X[615356,618917,1] - X[615356,618917,2]
   - X[616206,618917,1] - X[616206,618917,3] - X[618300,618917,1]
   - X[618300,618917,3] + X[618917,620653,1] + X[618917,620653,2] = 0
 non_customer_flow[615104]: - X[618564,615104,1] + X[615104,620336,2]
   - X[619713,615104,1] - X[619713,615104,3] - X[618008,615104,1]
   - X[619271,615104,1] - X[619271,615104,3] = 0
 capacity_constraint[618917]: X[615356,618917,1] + X[615356,618917,2]
   + X[616206,618917,1] + X[616206,618917,3] + X[618300,618917,1]
   + X[618300,618917,3] - 2911 O[618917] <= 0
 capacity_constraint[618133]: X[615540,618133,1] - 68180 O[618133] <= 0
 capacity_constraint[620347]: X[620144,620347,1] - 6925 O[620347] <= 0
 capacity_constraint[619982]: X[620144,619982,1] + X[616711,619982,1]
   - 10459 O[619982] <= 0
 capacity_constraint[619982]: X[620144,619982,1] + X[616711,619982,1]
   - 10459 O[619982] <= 0
 capacity_constraint[618522]: X[620144,618522,1] - 109 O[618522] <= 0
 capacity_constraint[616947]: X[620144,616947,1] + X[617435,616947,1]
   - 15 O[616947] <= 0
 capacity_constraint[616947]: X[620144,616947,1] + X[617435,616947,1]
   - 15 O[616947] <= 0
 capacity_constraint[618196]: X[615354,618196,1] - 24663 O[618196] <= 0
 capacity_constraint[615104]: X[618564,615104,1] + X[619713,615104,1]
   + X[619713,615104,3] + X[618008,615104,1] + X[619271,615104,1]
   + X[619271,615104,3] - 296 O[615104] <= 0
 capacity_constraint[615104]: X[618564,615104,1] + X[619713,615104,1]
   + X[619713,615104,3] + X[618008,615104,1] + X[619271,615104,1]
   + X[619271,615104,3] - 296 O[615104] <= 0
 capacity_constraint[615104]: X[618564,615104,1] + X[619713,615104,1]
   + X[619713,615104,3] + X[618008,615104,1] + X[619271,615104,1]
   + X[619271,615104,3] - 296 O[615104] <= 0
 capacity_constraint[616226]: X[619271,616226,1] + X[619271,616226,3]
   + X[618300,616226,1] - 328161 O[616226] <= 0
 capacity_constraint[616226]: X[619271,616226,1] + X[619271,616226,3]
   + X[618300,616226,1] - 328161 O[616226] <= 0
 capacity_constraint[618185]: X[617301,618185,1] + X[617301,618185,3]
   - 795148 O[618185] <= 0
 capacity_constraint[618917]: X[615356,618917,1] + X[615356,618917,2]
   + X[616206,618917,1] + X[616206,618917,3] + X[618300,618917,1]
   + X[618300,618917,3] - 2911 O[618917] <= 0
 capacity_constraint[618917]: X[615356,618917,1] + X[615356,618917,2]
   + X[616206,618917,1] + X[616206,618917,3] + X[618300,618917,1]
   + X[618300,618917,3] - 2911 O[618917] <= 0
 capacity_constraint[615104]: X[618564,615104,1] + X[619713,615104,1]
   + X[619713,615104,3] + X[618008,615104,1] + X[619271,615104,1]
   + X[619271,615104,3] - 296 O[615104] <= 0
 alpha_constraint[7]: - 0.00603 X[615104,620336,2] + X[619713,615104,1]
   + X[619713,615104,3] = 0
 alpha_constraint[9]: X[618564,615104,1] - 0.0011 X[615104,620336,2] = 0
 alpha_constraint[11]: - 0.99282 X[615104,620336,2] + X[619271,615104,1]
   + X[619271,615104,3] = 0
 alpha_constraint[13]: - 5e-05 X[615104,620336,2] + X[618008,615104,1] = 0
 alpha_constraint[20]: X[620144,618522,1] - X[618522,620439,1]
   - X[618522,620439,2] = 0
 alpha_constraint[5]: X[617301,618185,1] - X[618185,620103,2]
   + X[617301,618185,3] = 0
 alpha_constraint[36]: - 0.01771 X[616947,620481,1]
   - 0.01771 X[616947,620481,2] + X[617435,616947,1] = 0
 alpha_constraint[38]: - 0.98229 X[616947,620481,1]
   - 0.98229 X[616947,620481,2] + X[620144,616947,1] = 0
 alpha_constraint[5]: X[620144,620347,1] - X[620347,618237,2] = 0
 alpha_constraint[9]: X[620144,619982,1] - 0.03202 X[619982,618237,1] = 0
 alpha_constraint[11]: - 0.96798 X[619982,618237,1] + X[616711,619982,1]
   = 0
 alpha_constraint[15]: X[615540,618133,1] - X[618133,618237,1] = 0
 alpha_constraint[3]: - X[618196,620095,1] - X[618196,620095,2]
   + X[615354,618196,1] = 0
 alpha_constraint[17]: - 0.95265 X[616226,620336,1] + X[619271,616226,1]
   + X[619271,616226,3] = 0
 alpha_constraint[19]: - 0.04735 X[616226,620336,1] + X[618300,616226,1]
   = 0
 alpha_constraint[32]: X[616206,618917,1] + X[616206,618917,3]
   - 0.18535 X[618917,620653,1] - 0.18535 X[618917,620653,2] = 0
 alpha_constraint[34]: X[615356,618917,1] + X[615356,618917,2]
   - 0.00011 X[618917,620653,1] - 0.00011 X[618917,620653,2] = 0
 alpha_constraint[36]: X[618300,618917,1] + X[618300,618917,3]
   - 0.81454 X[618917,620653,1] - 0.81454 X[618917,620653,2] = 0
Bounds
Binaries
 O[618196] O[618185] O[620853] O[620095] O[620103] O[620650] O[615104]
 O[616226] O[620336] O[620626] O[620627] O[620832] O[620952] O[620621]
 O[620622] O[620623] O[620624] O[620625] O[620628] O[620629] O[620630]
 O[620631] O[620632] O[620633] O[620634] O[620635] O[620636] O[620637]
 O[620638] O[620639] O[620640] O[620641] O[620642] O[620643] O[620644]
 O[620645] O[620646] O[620647] O[620648] O[620649] O[620871] O[620872]
 O[620873] O[620874] O[620875] O[620876] O[620877] O[620878] O[620879]
 O[620880] O[620881] O[620882] O[620883] O[620884] O[620885] O[620886]
 O[620887] O[620888] O[620889] O[620890] O[620891] O[620892] O[620893]
 O[620894] O[620895] O[620896] O[620897] O[620898] O[620899] O[620900]
 O[620901] O[620902] O[620903] O[620904] O[620905] O[620906] O[620907]
 O[620908] O[620909] O[620910] O[620911] O[620912] O[620913] O[620914]
 O[620915] O[620916] O[620917] O[620918] O[620919] O[620920] O[620921]
 O[620922] O[620923] O[620924] O[620925] O[620926] O[620927] O[620928]
 O[620929] O[620930] O[620931] O[620932] O[620933] O[620934] O[620935]
 O[620936] O[620937] O[620938] O[620939] O[620940] O[620941] O[620942]
 O[620943] O[620944] O[620945] O[620946] O[620947] O[620948] O[620949]
 O[620950] O[620951] O[620953] O[620954] O[620955] O[620956] O[620957]
 O[620958] O[620959] O[620960] O[620740] O[620741] O[620742] O[620743]
 O[620744] O[620745] O[620746] O[620747] O[620748] O[620749] O[620750]
 O[620751] O[620752] O[620753] O[620754] O[620755] O[620756] O[620757]
 O[620758] O[620759] O[620760] O[620761] O[620762] O[620763] O[620764]
 O[620765] O[620766] O[620767] O[620768] O[620769] O[620770] O[620771]
 O[620772] O[620773] O[620774] O[620775] O[620776] O[620777] O[620778]
 O[620779] O[620780] O[620781] O[620782] O[620783] O[620784] O[620785]
 O[620786] O[620787] O[620788] O[620789] O[620790] O[620791] O[620792]
 O[620793] O[620794] O[620795] O[620796] O[620797] O[620798] O[620799]
 O[620800] O[620801] O[620802] O[620803] O[620804] O[620805] O[620806]
 O[620807] O[620808] O[620809] O[620810] O[620811] O[620812] O[620813]
 O[620961] O[620962] O[620963] O[620971] O[620972] O[620973] O[620974]
 O[620975] O[620976] O[620977] O[620978] O[620979] O[620980] O[620981]
 O[620982] O[620983] O[620984] O[620985] O[620986] O[620987] O[620988]
 O[620667] O[620668] O[620669] O[620670] O[620671] O[620672] O[620673]
 O[620674] O[620675] O[620676] O[620677] O[620678] O[620679] O[620680]
 O[620681] O[620682] O[620683] O[620684] O[620685] O[620686] O[620687]
 O[620688] O[620689] O[620690] O[620691] O[620692] O[620693] O[620694]
 O[620695] O[620696] O[620697] O[620698] O[620699] O[620700] O[620701]
 O[620702] O[620703] O[620704] O[620705] O[620706] O[620707] O[620708]
 O[620709] O[620710] O[620711] O[620712] O[620713] O[620714] O[620715]
 O[620716] O[620717] O[620718] O[620719] O[620720] O[620721] O[620722]
 O[620723] O[620724] O[620725] O[620726] O[620727] O[620728] O[620729]
 O[620730] O[620731] O[620732] O[620733] O[620734] O[620735] O[620736]
 O[620737] O[620738] O[620739] O[614991] O[620651] O[620652] O[620653]
 O[620654] O[620655] O[620656] O[620657] O[620658] O[620659] O[620660]
 O[620661] O[620662] O[620663] O[620664] O[620665] O[620814] O[620815]
 O[620816] O[620817] O[620818] O[620819] O[620820] O[620821] O[620822]
 O[620823] O[620824] O[620825] O[620826] O[620827] O[620828] O[620829]
 O[620830] O[620831] O[620833] O[620834] O[620835] O[620836] O[620837]
 O[620838] O[620839] O[620840] O[620841] O[620842] O[620843] O[620844]
 O[620845] O[620846] O[620847] O[620848] O[620849] O[620850] O[620851]
 O[620852] O[620854] O[620855] O[620856] O[620857] O[620858] O[620859]
 O[620860] O[620861] O[620862] O[620863] O[620864] O[620865] O[620866]
 O[620867] O[620868] O[620869] O[620870] O[615540] O[620372] O[620373]
 O[620374] O[620375] O[620376] O[620377] O[620378] O[620379] O[620380]
 O[620381] O[620382] O[620383] O[620384] O[620385] O[620386] O[620387]
 O[620388] O[620389] O[620390] O[620391] O[620392] O[620393] O[620394]
 O[620395] O[620396] O[620397] O[620398] O[620399] O[620400] O[620401]
 O[620402] O[620403] O[620404] O[620405] O[620406] O[620407] O[620408]
 O[620409] O[620410] O[620411] O[620412] O[620413] O[620414] O[620415]
 O[620416] O[620417] O[620418] O[620419] O[620420] O[620421] O[620422]
 O[620423] O[620424] O[620425] O[620426] O[620427] O[620428] O[620429]
 O[620430] O[620431] O[620432] O[620433] O[620434] O[620435] O[620436]
 O[620437] O[620438] O[620439] O[620440] O[620441] O[620442] O[620443]
 O[620444] O[620445] O[620520] O[620521] O[620522] O[620523] O[620524]
 O[620525] O[620526] O[620527] O[620528] O[620529] O[620530] O[620531]
 O[620532] O[620533] O[620534] O[620535] O[620536] O[620537] O[620538]
 O[620539] O[620540] O[620541] O[620542] O[620543] O[620544] O[620545]
 O[620546] O[620547] O[620548] O[620549] O[620550] O[620551] O[620552]
 O[620553] O[620554] O[620555] O[620556] O[620557] O[620558] O[620559]
 O[620560] O[620561] O[620562] O[620563] O[620564] O[620565] O[620566]
 O[620567] O[620568] O[620569] O[620570] O[620571] O[620572] O[620573]
 O[620574] O[620575] O[620576] O[620577] O[620578] O[620579] O[620580]
 O[620581] O[620582] O[620583] O[620584] O[620585] O[620586] O[620587]
 O[620588] O[620589] O[620590] O[620446] O[620447] O[620448] O[620449]
 O[620450] O[620451] O[620452] O[620453] O[620454] O[620455] O[620456]
 O[620457] O[620458] O[620459] O[620460] O[620461] O[620462] O[620463]
 O[620464] O[620465] O[620466] O[620467] O[620468] O[620469] O[620470]
 O[620471] O[620472] O[620473] O[620474] O[620475] O[620476] O[620477]
 O[620478] O[620479] O[620480] O[620481] O[620482] O[620483] O[620484]
 O[620485] O[620486] O[620487] O[620488] O[620489] O[620490] O[620491]
 O[620492] O[620493] O[620494] O[620495] O[620496] O[620497] O[620498]
 O[620499] O[620500] O[620501] O[620502] O[620503] O[620504] O[620505]
 O[620506] O[620507] O[620508] O[620509] O[620510] O[620511] O[620512]
 O[620513] O[620514] O[620515] O[620516] O[620517] O[620518] O[620519]
 O[615820] O[616711] O[617056] O[617435] O[620144] O[620365] O[620366]
 O[620367] O[620368] O[620369] O[620370] O[620371] O[621110] O[615354]
 O[621121] O[621146] O[621147] O[621148] O[621149] O[621150] O[621151]
 O[621152] O[621153] O[621154] O[620599] O[619713] O[620600] O[620601]
 O[620602] O[620666] O[620603] O[620604] O[620605] O[620606] O[620607]
 O[620608] O[620609] O[620610] O[620611] O[620612] O[620613] O[620614]
 O[620615] O[620616] O[620617] O[620618] O[620619] O[620620] O[620995]
 O[620996] O[620997] O[620998] O[620999] O[621000] O[621001] O[621002]
 O[621003] O[621004] O[621005] O[621006] O[621007] O[621008] O[621009]
 O[621010] O[621011] O[621012] O[621013] O[621014] O[621015] O[621016]
 O[621017] O[621018] O[621019] O[621020] O[621021] O[621022] O[621023]
 O[621024] O[621025] O[621031] O[621032] O[621067] O[621068] O[621069]
 O[621070] O[621071] O[621072] O[621033] O[621034] O[621035] O[621036]
 O[621037] O[621038] O[621039] O[621040] O[621041] O[621042] O[621043]
 O[621073] O[621074] O[621075] O[621076] O[621077] O[621078] O[621079]
 O[621080] O[621081] O[621082] O[621083] O[621084] O[621085] O[621086]
 O[621088] O[621089] O[621090] O[621091] O[621044] O[621045] O[621046]
 O[621047] O[621048] O[621049] O[621050] O[621051] O[621052] O[621053]
 O[621054] O[621055] O[621056] O[621057] O[621058] O[621059] O[621060]
 O[621061] O[621062] O[621092] O[621093] O[621094] O[621095] O[621096]
 O[621097] O[621098] O[621099] O[621100] O[621101] O[621102] O[621103]
 O[621104] O[621105] O[621106] O[621107] O[621108] O[621109] O[621087]
 O[621140] O[621141] O[618917] O[618133] O[618237] O[619982] O[620347]
 O[621111] O[621112] O[621113] O[621114] O[621115] O[621116] O[621117]
 O[621118] O[621119] O[621120] O[621122] O[621123] O[621124] O[621125]
 O[621126] O[621127] O[621128] O[621129] O[621130] O[621131] O[621132]
 O[621133] O[621134] O[621135] O[621136] O[621137] O[621138] O[621139]
 O[621142] O[621143] O[621144] O[621145] O[621063] O[621064] O[621065]
 O[621066] O[621155] O[621156] O[621157] O[621158] O[621159] O[621160]
 O[621161] O[621162] O[621163] O[621164] O[621165] O[617301] O[620989]
 O[620990] O[620991] O[621026] O[621027] O[621028] O[621029] O[621030]
 O[620591] O[615356] O[616109] O[618008] O[620592] O[616206] O[618300]
 O[620593] O[616604] O[618564] O[620594] O[620595] O[620596] O[620597]
 O[620598] O[619271] O[620992] O[618522] O[620993] O[620994] O[616947]
 O[620964] O[620965] O[620966] O[620967] O[620968] O[620969] O[620970]
End
